
  32    1
  10

   0   0   4 2 3 4 5 
   9   1   6 16 11 10 8 7 6 
   1   4   4 16 12 11 9 
   3   4   2 15 6 
   3   3   3 13 11 10 
   1   6   2 12 9 
   7   2   3 15 14 13 
  10   6   1 9 
   4   4   2 14 13 
   5   3   3 19 18 14 
   5   3   4 20 19 18 17 
   5   6   2 18 14 
   3   4   3 19 18 17 
   2   4   2 20 17 
   4   3   2 20 17 
   8   5   2 20 19 
   7   4   4 26 25 22 21 
   5   3   4 26 25 22 21 
   9   6   5 26 25 24 23 22 
   9   2   3 26 25 21 
   5   5   2 24 23 
   8   4   4 31 30 29 28 
   1   2   2 31 27 
   6   5   3 30 29 28 
   6   3   3 30 29 28 
   7   4   1 27 
   6   7   2 29 28 
  10   4   1 32
   4   3   1 32
   8   2   1 32
   2   8   1 32
   0   0   0 
